7593472462819788822502,2,1,2,013,10,1,2,014,1,1,2,010,7,1,2,08,5,1,2,010,2,1,2,04,15,1,2,012,12,1,2,03,14,1,2,07,9,1,2,014,5,1,2,013,13,1,2,04,10,1,2,011,6,1,2,015,3,1,2,09,8,1,2,09,2,1,2,04,10,1,2,08,9,1,2,05,13,1,2,03,6,1,2,012,5,1,2,05,6,1,2,06,15,1,2,06,11,1,2,06,5,1,2,04,15,1,2,02,5,1,2,010,3,1,2,015,4,1,2,08,2,1,2,015,3,1,2,013,15,1,2,02,2,1,2,012,4,1,2,013,2,1,2,015,3,1,2,08,3,1,2,012,13,1,2,011,6,1,2,05,9,1,2,014,13,1,2,03,3,1,2,014,8,1,2,013,1,1,2,014,4,1,2,06,7,1,2,09,15,1,2,012,12,1,2,010,5,1,2,0